NAME           C:\Bruker\Hvattum\knapsack\Problems\class1\100-5-16.mps
ROWS
 N  OBJ
 L  CONSTR1
 L  CONSTR2
 L  CONSTR3
 L  CONSTR4
 L  CONSTR5
COLUMNS
    INT0001   'MARKER'  'INTORG'
    X1        OBJ       712
    X1        CONSTR1   684
    X1        CONSTR2   304
    X1        CONSTR3   87
    X1        CONSTR4   384
    X1        CONSTR5   26
    X2        OBJ       839
    X2        CONSTR1   924
    X2        CONSTR2   938
    X2        CONSTR3   662
    X2        CONSTR4   46
    X2        CONSTR5   945
    X3        OBJ       811
    X3        CONSTR1   669
    X3        CONSTR2   579
    X3        CONSTR3   407
    X3        CONSTR4   97
    X3        CONSTR5   50
    X4        OBJ       531
    X4        CONSTR1   293
    X4        CONSTR2   992
    X4        CONSTR3   55
    X4        CONSTR4   168
    X4        CONSTR5   991
    X5        OBJ       621
    X5        CONSTR1   348
    X5        CONSTR2   228
    X5        CONSTR3   482
    X5        CONSTR4   768
    X5        CONSTR5   556
    X6        OBJ       641
    X6        CONSTR1   197
    X6        CONSTR2   309
    X6        CONSTR3   714
    X6        CONSTR4   404
    X6        CONSTR5   130
    X7        OBJ       655
    X7        CONSTR1   409
    X7        CONSTR2   747
    X7        CONSTR3   931
    X7        CONSTR4   386
    X7        CONSTR5   360
    X8        OBJ       909
    X8        CONSTR1   685
    X8        CONSTR2   765
    X8        CONSTR3   316
    X8        CONSTR4   573
    X8        CONSTR5   907
    X9        OBJ       811
    X9        CONSTR1   720
    X9        CONSTR2   840
    X9        CONSTR3   81
    X9        CONSTR4   815
    X9        CONSTR5   243
    X10       OBJ       606
    X10       CONSTR1   330
    X10       CONSTR2   560
    X10       CONSTR3   93
    X10       CONSTR4   987
    X10       CONSTR5   570
    X11       OBJ       886
    X11       CONSTR1   582
    X11       CONSTR2   548
    X11       CONSTR3   737
    X11       CONSTR4   697
    X11       CONSTR5   711
    X12       OBJ       804
    X12       CONSTR1   701
    X12       CONSTR2   941
    X12       CONSTR3   220
    X12       CONSTR4   360
    X12       CONSTR5   202
    X13       OBJ       555
    X13       CONSTR1   579
    X13       CONSTR2   415
    X13       CONSTR3   533
    X13       CONSTR4   46
    X13       CONSTR5   2
    X14       OBJ       844
    X14       CONSTR1   249
    X14       CONSTR2   91
    X14       CONSTR3   925
    X14       CONSTR4   396
    X14       CONSTR5   245
    X15       OBJ       792
    X15       CONSTR1   396
    X15       CONSTR2   812
    X15       CONSTR3   814
    X15       CONSTR4   105
    X15       CONSTR5   477
    X16       OBJ       537
    X16       CONSTR1   565
    X16       CONSTR2   284
    X16       CONSTR3   74
    X16       CONSTR4   549
    X16       CONSTR5   783
    X17       OBJ       456
    X17       CONSTR1   616
    X17       CONSTR2   31
    X17       CONSTR3   179
    X17       CONSTR4   702
    X17       CONSTR5   531
    X18       OBJ       452
    X18       CONSTR1   589
    X18       CONSTR2   655
    X18       CONSTR3   418
    X18       CONSTR4   49
    X18       CONSTR5   295
    X19       OBJ       813
    X19       CONSTR1   606
    X19       CONSTR2   496
    X19       CONSTR3   919
    X19       CONSTR4   784
    X19       CONSTR5   555
    X20       OBJ       693
    X20       CONSTR1   36
    X20       CONSTR2   335
    X20       CONSTR3   479
    X20       CONSTR4   796
    X20       CONSTR5   559
    X21       OBJ       682
    X21       CONSTR1   483
    X21       CONSTR2   434
    X21       CONSTR3   538
    X21       CONSTR4   245
    X21       CONSTR5   607
    X22       OBJ       539
    X22       CONSTR1   153
    X22       CONSTR2   467
    X22       CONSTR3   115
    X22       CONSTR4   836
    X22       CONSTR5   966
    X23       OBJ       786
    X23       CONSTR1   46
    X23       CONSTR2   776
    X23       CONSTR3   741
    X23       CONSTR4   140
    X23       CONSTR5   212
    X24       OBJ       781
    X24       CONSTR1   272
    X24       CONSTR2   784
    X24       CONSTR3   723
    X24       CONSTR4   671
    X24       CONSTR5   513
    X25       OBJ       763
    X25       CONSTR1   3
    X25       CONSTR2   1000
    X25       CONSTR3   391
    X25       CONSTR4   964
    X25       CONSTR5   239
    X26       OBJ       672
    X26       CONSTR1   718
    X26       CONSTR2   812
    X26       CONSTR3   258
    X26       CONSTR4   432
    X26       CONSTR5   896
    X27       OBJ       672
    X27       CONSTR1   580
    X27       CONSTR2   797
    X27       CONSTR3   198
    X27       CONSTR4   103
    X27       CONSTR5   262
    X28       OBJ       590
    X28       CONSTR1   480
    X28       CONSTR2   499
    X28       CONSTR3   116
    X28       CONSTR4   53
    X28       CONSTR5   702
    X29       OBJ       1166
    X29       CONSTR1   822
    X29       CONSTR2   913
    X29       CONSTR3   760
    X29       CONSTR4   233
    X29       CONSTR5   669
    X30       OBJ       546
    X30       CONSTR1   234
    X30       CONSTR2   721
    X30       CONSTR3   519
    X30       CONSTR4   267
    X30       CONSTR5   60
    X31       OBJ       441
    X31       CONSTR1   455
    X31       CONSTR2   306
    X31       CONSTR3   410
    X31       CONSTR4   11
    X31       CONSTR5   310
    X32       OBJ       517
    X32       CONSTR1   133
    X32       CONSTR2   542
    X32       CONSTR3   960
    X32       CONSTR4   195
    X32       CONSTR5   341
    X33       OBJ       1030
    X33       CONSTR1   851
    X33       CONSTR2   83
    X33       CONSTR3   674
    X33       CONSTR4   829
    X33       CONSTR5   409
    X34       OBJ       352
    X34       CONSTR1   425
    X34       CONSTR2   522
    X34       CONSTR3   221
    X34       CONSTR4   376
    X34       CONSTR5   42
    X35       OBJ       862
    X35       CONSTR1   552
    X35       CONSTR2   821
    X35       CONSTR3   816
    X35       CONSTR4   990
    X35       CONSTR5   741
    X36       OBJ       873
    X36       CONSTR1   748
    X36       CONSTR2   859
    X36       CONSTR3   219
    X36       CONSTR4   71
    X36       CONSTR5   188
    X37       OBJ       871
    X37       CONSTR1   413
    X37       CONSTR2   696
    X37       CONSTR3   314
    X37       CONSTR4   533
    X37       CONSTR5   100
    X38       OBJ       541
    X38       CONSTR1   232
    X38       CONSTR2   214
    X38       CONSTR3   302
    X38       CONSTR4   902
    X38       CONSTR5   426
    X39       OBJ       860
    X39       CONSTR1   849
    X39       CONSTR2   316
    X39       CONSTR3   699
    X39       CONSTR4   492
    X39       CONSTR5   37
    X40       OBJ       706
    X40       CONSTR1   981
    X40       CONSTR2   549
    X40       CONSTR3   798
    X40       CONSTR4   356
    X40       CONSTR5   389
    X41       OBJ       629
    X41       CONSTR1   68
    X41       CONSTR2   228
    X41       CONSTR3   134
    X41       CONSTR4   65
    X41       CONSTR5   719
    X42       OBJ       552
    X42       CONSTR1   350
    X42       CONSTR2   407
    X42       CONSTR3   752
    X42       CONSTR4   763
    X42       CONSTR5   109
    X43       OBJ       557
    X43       CONSTR1   128
    X43       CONSTR2   176
    X43       CONSTR3   201
    X43       CONSTR4   207
    X43       CONSTR5   545
    X44       OBJ       563
    X44       CONSTR1   345
    X44       CONSTR2   179
    X44       CONSTR3   845
    X44       CONSTR4   76
    X44       CONSTR5   318
    X45       OBJ       1121
    X45       CONSTR1   763
    X45       CONSTR2   578
    X45       CONSTR3   465
    X45       CONSTR4   719
    X45       CONSTR5   873
    X46       OBJ       551
    X46       CONSTR1   522
    X46       CONSTR2   990
    X46       CONSTR3   396
    X46       CONSTR4   286
    X46       CONSTR5   125
    X47       OBJ       539
    X47       CONSTR1   282
    X47       CONSTR2   307
    X47       CONSTR3   589
    X47       CONSTR4   855
    X47       CONSTR5   543
    X48       OBJ       1137
    X48       CONSTR1   710
    X48       CONSTR2   831
    X48       CONSTR3   943
    X48       CONSTR4   353
    X48       CONSTR5   622
    X49       OBJ       731
    X49       CONSTR1   170
    X49       CONSTR2   996
    X49       CONSTR3   737
    X49       CONSTR4   957
    X49       CONSTR5   259
    X50       OBJ       1167
    X50       CONSTR1   594
    X50       CONSTR2   974
    X50       CONSTR3   626
    X50       CONSTR4   607
    X50       CONSTR5   749
    X51       OBJ       736
    X51       CONSTR1   298
    X51       CONSTR2   312
    X51       CONSTR3   689
    X51       CONSTR4   993
    X51       CONSTR5   247
    X52       OBJ       863
    X52       CONSTR1   946
    X52       CONSTR2   22
    X52       CONSTR3   700
    X52       CONSTR4   554
    X52       CONSTR5   336
    X53       OBJ       498
    X53       CONSTR1   834
    X53       CONSTR2   252
    X53       CONSTR3   913
    X53       CONSTR4   128
    X53       CONSTR5   284
    X54       OBJ       566
    X54       CONSTR1   640
    X54       CONSTR2   978
    X54       CONSTR3   63
    X54       CONSTR4   247
    X54       CONSTR5   488
    X55       OBJ       424
    X55       CONSTR1   95
    X55       CONSTR2   470
    X55       CONSTR3   126
    X55       CONSTR4   418
    X55       CONSTR5   432
    X56       OBJ       939
    X56       CONSTR1   880
    X56       CONSTR2   509
    X56       CONSTR3   849
    X56       CONSTR4   87
    X56       CONSTR5   194
    X57       OBJ       1046
    X57       CONSTR1   914
    X57       CONSTR2   766
    X57       CONSTR3   244
    X57       CONSTR4   183
    X57       CONSTR5   907
    X58       OBJ       952
    X58       CONSTR1   69
    X58       CONSTR2   725
    X58       CONSTR3   842
    X58       CONSTR4   614
    X58       CONSTR5   283
    X59       OBJ       588
    X59       CONSTR1   295
    X59       CONSTR2   500
    X59       CONSTR3   902
    X59       CONSTR4   784
    X59       CONSTR5   431
    X60       OBJ       973
    X60       CONSTR1   925
    X60       CONSTR2   184
    X60       CONSTR3   714
    X60       CONSTR4   355
    X60       CONSTR5   762
    X61       OBJ       978
    X61       CONSTR1   860
    X61       CONSTR2   473
    X61       CONSTR3   752
    X61       CONSTR4   606
    X61       CONSTR5   120
    X62       OBJ       640
    X62       CONSTR1   394
    X62       CONSTR2   942
    X62       CONSTR3   537
    X62       CONSTR4   208
    X62       CONSTR5   489
    X63       OBJ       930
    X63       CONSTR1   270
    X63       CONSTR2   76
    X63       CONSTR3   992
    X63       CONSTR4   596
    X63       CONSTR5   767
    X64       OBJ       625
    X64       CONSTR1   778
    X64       CONSTR2   458
    X64       CONSTR3   667
    X64       CONSTR4   643
    X64       CONSTR5   77
    X65       OBJ       1001
    X65       CONSTR1   846
    X65       CONSTR2   689
    X65       CONSTR3   735
    X65       CONSTR4   531
    X65       CONSTR5   984
    X66       OBJ       686
    X66       CONSTR1   299
    X66       CONSTR2   255
    X66       CONSTR3   685
    X66       CONSTR4   727
    X66       CONSTR5   75
    X67       OBJ       788
    X67       CONSTR1   292
    X67       CONSTR2   88
    X67       CONSTR3   737
    X67       CONSTR4   689
    X67       CONSTR5   343
    X68       OBJ       1005
    X68       CONSTR1   15
    X68       CONSTR2   268
    X68       CONSTR3   991
    X68       CONSTR4   634
    X68       CONSTR5   855
    X69       OBJ       750
    X69       CONSTR1   473
    X69       CONSTR2   118
    X69       CONSTR3   108
    X69       CONSTR4   563
    X69       CONSTR5   196
    X70       OBJ       572
    X70       CONSTR1   730
    X70       CONSTR2   257
    X70       CONSTR3   864
    X70       CONSTR4   112
    X70       CONSTR5   500
    X71       OBJ       637
    X71       CONSTR1   537
    X71       CONSTR2   294
    X71       CONSTR3   834
    X71       CONSTR4   28
    X71       CONSTR5   838
    X72       OBJ       513
    X72       CONSTR1   596
    X72       CONSTR2   173
    X72       CONSTR3   117
    X72       CONSTR4   450
    X72       CONSTR5   130
    X73       OBJ       822
    X73       CONSTR1   515
    X73       CONSTR2   258
    X73       CONSTR3   578
    X73       CONSTR4   123
    X73       CONSTR5   441
    X74       OBJ       560
    X74       CONSTR1   509
    X74       CONSTR2   634
    X74       CONSTR3   738
    X74       CONSTR4   173
    X74       CONSTR5   733
    X75       OBJ       831
    X75       CONSTR1   609
    X75       CONSTR2   282
    X75       CONSTR3   247
    X75       CONSTR4   329
    X75       CONSTR5   223
    X76       OBJ       928
    X76       CONSTR1   711
    X76       CONSTR2   693
    X76       CONSTR3   734
    X76       CONSTR4   234
    X76       CONSTR5   599
    X77       OBJ       334
    X77       CONSTR1   13
    X77       CONSTR2   389
    X77       CONSTR3   204
    X77       CONSTR4   222
    X77       CONSTR5   566
    X78       OBJ       866
    X78       CONSTR1   503
    X78       CONSTR2   370
    X78       CONSTR3   583
    X78       CONSTR4   69
    X78       CONSTR5   325
    X79       OBJ       618
    X79       CONSTR1   544
    X79       CONSTR2   703
    X79       CONSTR3   249
    X79       CONSTR4   201
    X79       CONSTR5   516
    X80       OBJ       652
    X80       CONSTR1   836
    X80       CONSTR2   242
    X80       CONSTR3   703
    X80       CONSTR4   571
    X80       CONSTR5   693
    X81       OBJ       751
    X81       CONSTR1   988
    X81       CONSTR2   209
    X81       CONSTR3   836
    X81       CONSTR4   161
    X81       CONSTR5   552
    X82       OBJ       672
    X82       CONSTR1   71
    X82       CONSTR2   776
    X82       CONSTR3   841
    X82       CONSTR4   813
    X82       CONSTR5   294
    X83       OBJ       708
    X83       CONSTR1   148
    X83       CONSTR2   605
    X83       CONSTR3   743
    X83       CONSTR4   421
    X83       CONSTR5   764
    X84       OBJ       936
    X84       CONSTR1   199
    X84       CONSTR2   543
    X84       CONSTR3   462
    X84       CONSTR4   809
    X84       CONSTR5   204
    X85       OBJ       901
    X85       CONSTR1   152
    X85       CONSTR2   685
    X85       CONSTR3   573
    X85       CONSTR4   319
    X85       CONSTR5   788
    X86       OBJ       582
    X86       CONSTR1   66
    X86       CONSTR2   447
    X86       CONSTR3   140
    X86       CONSTR4   397
    X86       CONSTR5   840
    X87       OBJ       770
    X87       CONSTR1   997
    X87       CONSTR2   769
    X87       CONSTR3   57
    X87       CONSTR4   82
    X87       CONSTR5   901
    X88       OBJ       932
    X88       CONSTR1   299
    X88       CONSTR2   552
    X88       CONSTR3   998
    X88       CONSTR4   57
    X88       CONSTR5   1000
    X89       OBJ       653
    X89       CONSTR1   871
    X89       CONSTR2   129
    X89       CONSTR3   742
    X89       CONSTR4   269
    X89       CONSTR5   513
    X90       OBJ       402
    X90       CONSTR1   401
    X90       CONSTR2   472
    X90       CONSTR3   117
    X90       CONSTR4   163
    X90       CONSTR5   231
    X91       OBJ       555
    X91       CONSTR1   638
    X91       CONSTR2   631
    X91       CONSTR3   24
    X91       CONSTR4   354
    X91       CONSTR5   560
    X92       OBJ       760
    X92       CONSTR1   808
    X92       CONSTR2   917
    X92       CONSTR3   979
    X92       CONSTR4   703
    X92       CONSTR5   367
    X93       OBJ       449
    X93       CONSTR1   247
    X93       CONSTR2   142
    X93       CONSTR3   92
    X93       CONSTR4   325
    X93       CONSTR5   92
    X94       OBJ       986
    X94       CONSTR1   546
    X94       CONSTR2   878
    X94       CONSTR3   449
    X94       CONSTR4   472
    X94       CONSTR5   140
    X95       OBJ       547
    X95       CONSTR1   176
    X95       CONSTR2   464
    X95       CONSTR3   655
    X95       CONSTR4   85
    X95       CONSTR5   638
    X96       OBJ       832
    X96       CONSTR1   990
    X96       CONSTR2   570
    X96       CONSTR3   837
    X96       CONSTR4   660
    X96       CONSTR5   121
    X97       OBJ       526
    X97       CONSTR1   5
    X97       CONSTR2   99
    X97       CONSTR3   679
    X97       CONSTR4   515
    X97       CONSTR5   808
    X98       OBJ       574
    X98       CONSTR1   752
    X98       CONSTR2   332
    X98       CONSTR3   607
    X98       CONSTR4   155
    X98       CONSTR5   747
    X99       OBJ       1160
    X99       CONSTR1   482
    X99       CONSTR2   948
    X99       CONSTR3   746
    X99       CONSTR4   420
    X99       CONSTR5   990
    X100      OBJ       695
    X100      CONSTR1   349
    X100      CONSTR2   51
    X100      CONSTR3   236
    X100      CONSTR4   818
    X100      CONSTR5   578
    INT0001   'MARKER'  'INTEND'
RHS
    RHS10001  CONSTR1   24476
    RHS10001  CONSTR2   25623
    RHS10001  CONSTR3   26748
    RHS10001  CONSTR4   21385
    RHS10001  CONSTR5   23536
BOUNDS
 BV BND       X1        .00
 BV BND       X2        .00
 BV BND       X3        .00
 BV BND       X4        .00
 BV BND       X5        .00
 BV BND       X6        .00
 BV BND       X7        .00
 BV BND       X8        .00
 BV BND       X9        .00
 BV BND       X10       .00
 BV BND       X11       .00
 BV BND       X12       .00
 BV BND       X13       .00
 BV BND       X14       .00
 BV BND       X15       .00
 BV BND       X16       .00
 BV BND       X17       .00
 BV BND       X18       .00
 BV BND       X19       .00
 BV BND       X20       .00
 BV BND       X21       .00
 BV BND       X22       .00
 BV BND       X23       .00
 BV BND       X24       .00
 BV BND       X25       .00
 BV BND       X26       .00
 BV BND       X27       .00
 BV BND       X28       .00
 BV BND       X29       .00
 BV BND       X30       .00
 BV BND       X31       .00
 BV BND       X32       .00
 BV BND       X33       .00
 BV BND       X34       .00
 BV BND       X35       .00
 BV BND       X36       .00
 BV BND       X37       .00
 BV BND       X38       .00
 BV BND       X39       .00
 BV BND       X40       .00
 BV BND       X41       .00
 BV BND       X42       .00
 BV BND       X43       .00
 BV BND       X44       .00
 BV BND       X45       .00
 BV BND       X46       .00
 BV BND       X47       .00
 BV BND       X48       .00
 BV BND       X49       .00
 BV BND       X50       .00
 BV BND       X51       .00
 BV BND       X52       .00
 BV BND       X53       .00
 BV BND       X54       .00
 BV BND       X55       .00
 BV BND       X56       .00
 BV BND       X57       .00
 BV BND       X58       .00
 BV BND       X59       .00
 BV BND       X60       .00
 BV BND       X61       .00
 BV BND       X62       .00
 BV BND       X63       .00
 BV BND       X64       .00
 BV BND       X65       .00
 BV BND       X66       .00
 BV BND       X67       .00
 BV BND       X68       .00
 BV BND       X69       .00
 BV BND       X70       .00
 BV BND       X71       .00
 BV BND       X72       .00
 BV BND       X73       .00
 BV BND       X74       .00
 BV BND       X75       .00
 BV BND       X76       .00
 BV BND       X77       .00
 BV BND       X78       .00
 BV BND       X79       .00
 BV BND       X80       .00
 BV BND       X81       .00
 BV BND       X82       .00
 BV BND       X83       .00
 BV BND       X84       .00
 BV BND       X85       .00
 BV BND       X86       .00
 BV BND       X87       .00
 BV BND       X88       .00
 BV BND       X89       .00
 BV BND       X90       .00
 BV BND       X91       .00
 BV BND       X92       .00
 BV BND       X93       .00
 BV BND       X94       .00
 BV BND       X95       .00
 BV BND       X96       .00
 BV BND       X97       .00
 BV BND       X98       .00
 BV BND       X99       .00
 BV BND       X100      .00
ENDATA
